122 28 48 24 59 180 124 25 170 187 130 46 77 22 126 115 158 70 2 5 193 173 154 32 67 
163 15 156 169 172 132 196 43 190 38 112 160 23 52 44 66 
151 165 131 80 148 51 74 56 98 18 176 166 114 189 129 161 106 41 71 183 55 9 107 139 179 91 110 135 88 157 177 29 150 39 75 17 174 64 65 12 102 93 
142 47 152 100 199 84 127 155 128 143 188 105 113 186 138 191 58 95 90 36 89 145 79 178 11 185 103 30 119 16 83 19 97 
182 140 6 37 85 31 78 61 184 27 111 198 125 101 144 87 137 121 123 76 1 146 175 
4 92 54 42 63 149 68 7 197 62 26 104 159 136 21 195 109 86 134 192 50 194 117 153 73 120 13 82 8 96 141 60 69 81 33 116 200 10 162 34 
57 49 147 133 40 108 45 168 99 94 53 
167 14 181 35 164 171 3 20 72 
118 

